
  12    4
  10   10   10   10

   0   0   0   0   0   2 2 4 
   6  10  10  10  10   4 11 6 5 3 
   7  10  10  10  10   3 10 9 7 
   8  10  10  10  10   2 10 6 
   1  10  10  10  10   3 10 9 8 
   9  10  10  10  10   2 9 8 
  10  10  10  10  10   1 8 
   1  10  10  10  10   1 12
   2  10  10  10  10   1 12
   9  10  10  10  10   1 12
   1  10  10  10  10   1 12
   0   0   0   0   0   0 
